Route #1: 77 23 44 26 11 64 40 53
Route #2: 68 41 14 36 4 59 35 55
Route #3: 50 39 48 13 33 61
Route #4: 62 74 28 19 9 6 60 66 16
Route #5: 25 10 18 42 2 27 47
Route #6: 49 63 5 30 37 65 72 17
Route #7: 1 24 52 21 43 67 69 38 58
Route #8: 56 8 22 71 34 12 15 51
Route #9: 45 46 31 20 54 3 73 32
Route #10: 70 29 76 7 57 75
Cost 1305